(declare-const a Real)
(declare-const b Real)
(declare-const c Real)
(assert (= (+ a b c) 3))
(assert (not (<= (+ (* a b) (* a c) (* b c) (* (pow (* (pow a a) (pow b 2) (pow c 2)) (pow (+ 2 a) -1)) (+ -2 (* -1 a)))) 0)))
(check-sat)
(get-model)
(exit)